; DUP2 DUP3 SWAP2 CALLER SWAP1 => DUP2 CALLER DUP2 SWAP3
(set-option :produce-proofs true)
; 
(set-info :status unknown)
(declare-fun storage_t ((_ BitVec 256) (_ BitVec 256) (_ BitVec 256) Int (_ BitVec 256)) (_ BitVec 256))
(declare-fun storage_s ((_ BitVec 256) (_ BitVec 256) (_ BitVec 256) Int (_ BitVec 256)) (_ BitVec 256))
(declare-fun exc_halt_t (Int) Bool)
(declare-fun exc_halt_s (Int) Bool)
(declare-fun stack_t ((_ BitVec 256) (_ BitVec 256) (_ BitVec 256) Int (_ BitVec 6)) (_ BitVec 256))
(declare-fun stack_s ((_ BitVec 256) (_ BitVec 256) (_ BitVec 256) Int (_ BitVec 6)) (_ BitVec 256))
(declare-fun sc_t (Int) (_ BitVec 6))
(declare-fun sc_s (Int) (_ BitVec 6))
(declare-fun used_gas_t ((_ BitVec 256) (_ BitVec 256) (_ BitVec 256) Int) Int)
(declare-fun used_gas_s ((_ BitVec 256) (_ BitVec 256) (_ BitVec 256) Int) Int)
(assert
 (exists ((x_0 (_ BitVec 256)) (x_1 (_ BitVec 256)) (x_CALLER (_ BitVec 256)) )(let (($x10324 (forall ((w (_ BitVec 256)) )(let ((?x7029 (storage_t x_0 x_1 x_CALLER 4 w)))
 (let ((?x5408 (storage_s x_0 x_1 x_CALLER 5 w)))
 (= ?x5408 ?x7029))))
 ))
 (let (($x3723 (exc_halt_t 4)))
 (let (($x3979 (exc_halt_s 5)))
 (let (($x7567 (= $x3979 $x3723)))
 (let (($x9057 (forall ((n (_ BitVec 6)) )(let ((?x7514 (stack_t x_0 x_1 x_CALLER 4 n)))
 (let ((?x1964 (stack_s x_0 x_1 x_CALLER 5 n)))
 (let (($x11845 (= ?x1964 ?x7514)))
 (or (bvsle (sc_t 4) n) $x11845)))))
 ))
 (let ((?x3757 (sc_t 4)))
 (let ((?x805 (sc_s 5)))
 (let (($x9143 (= ?x805 ?x3757)))
 (let ((?x8606 (used_gas_t x_0 x_1 x_CALLER 0)))
 (let ((?x9574 (used_gas_s x_0 x_1 x_CALLER 0)))
 (let (($x5644 (= ?x9574 ?x8606)))
 (let (($x8433 (forall ((w (_ BitVec 256)) )(let ((?x11839 (storage_t x_0 x_1 x_CALLER 0 w)))
 (let ((?x2945 (storage_s x_0 x_1 x_CALLER 0 w)))
 (= ?x2945 ?x11839))))
 ))
 (let (($x56 (exc_halt_t 0)))
 (let (($x57 (exc_halt_s 0)))
 (let (($x58 (= $x57 $x56)))
 (let (($x11527 (forall ((n (_ BitVec 6)) )(let ((?x11827 (stack_t x_0 x_1 x_CALLER 0 n)))
 (let ((?x9550 (stack_s x_0 x_1 x_CALLER 0 n)))
 (let (($x7301 (= ?x9550 ?x11827)))
 (or $x7301 (bvsle (sc_t 0) n))))))
 ))
 (let ((?x63 (sc_t 0)))
 (let ((?x72 (sc_s 0)))
 (let (($x73 (= ?x72 ?x63)))
 (let (($x7444 (= $x3723 (or (exc_halt_t 3) (not (bvsle (_ bv0 6) (bvadd (_ bv60 6) (sc_t 3))))))))
 (let (($x8551 (forall ((w (_ BitVec 256)) )(let ((?x1859 (storage_t x_0 x_1 x_CALLER 3 w)))
 (let ((?x7029 (storage_t x_0 x_1 x_CALLER 4 w)))
 (= ?x7029 ?x1859))))
 ))
 (let (($x632 (forall ((n (_ BitVec 6)) )(let ((?x5240 (stack_t x_0 x_1 x_CALLER 3 n)))
 (let ((?x7514 (stack_t x_0 x_1 x_CALLER 4 n)))
 (or (bvsle (bvadd (_ bv60 6) (sc_t 3)) n) (= ?x7514 ?x5240)))))
 ))
 (let (($x2682 (= (used_gas_t x_0 x_1 x_CALLER 4) (+ 3 (used_gas_t x_0 x_1 x_CALLER 3)))))
 (let (($x6453 (= (stack_t x_0 x_1 x_CALLER 4 (bvadd (_ bv62 6) ?x3757)) (stack_t x_0 x_1 x_CALLER 3 (bvadd (_ bv62 6) (sc_t 3))))))
 (let (($x8283 (= (stack_t x_0 x_1 x_CALLER 4 (bvadd (_ bv61 6) ?x3757)) (stack_t x_0 x_1 x_CALLER 3 (bvadd (_ bv61 6) (sc_t 3))))))
 (let ((?x11341 (stack_t x_0 x_1 x_CALLER 3 (bvadd (_ bv63 6) (sc_t 3)))))
 (let (($x7354 (= (stack_t x_0 x_1 x_CALLER 4 (bvadd (_ bv63 6) ?x3757)) (stack_t x_0 x_1 x_CALLER 3 (bvadd (_ bv60 6) (sc_t 3))))))
 (let (($x903 (exc_halt_t 2)))
 (let (($x7503 (or $x903 (not (bvsle (_ bv0 6) (bvadd (_ bv62 6) (sc_t 2)))) (not (= ((_ extract 6 6) (bvadd (_ bv1 7) (concat (_ bv0 1) (sc_t 2)))) (_ bv0 1))))))
 (let (($x4755 (exc_halt_t 3)))
 (let (($x11485 (forall ((w (_ BitVec 256)) )(let ((?x7254 (storage_t x_0 x_1 x_CALLER 2 w)))
 (let ((?x1859 (storage_t x_0 x_1 x_CALLER 3 w)))
 (= ?x1859 ?x7254))))
 ))
 (let (($x7345 (forall ((n (_ BitVec 6)) )(let ((?x549 (stack_t x_0 x_1 x_CALLER 2 n)))
 (let ((?x5240 (stack_t x_0 x_1 x_CALLER 3 n)))
 (or (= ?x5240 ?x549) (bvsle (bvadd (_ bv62 6) (sc_t 2)) n)))))
 ))
 (let ((?x10638 (used_gas_t x_0 x_1 x_CALLER 3)))
 (let (($x4408 (= (stack_t x_0 x_1 x_CALLER 3 (bvadd (_ bv63 6) (sc_t 2))) (stack_t x_0 x_1 x_CALLER 2 (bvadd (_ bv63 6) (sc_t 2))))))
 (let ((?x4056 (sc_t 2)))
 (let ((?x11358 (bvadd (_ bv62 6) ?x4056)))
 (let ((?x6781 (stack_t x_0 x_1 x_CALLER 2 ?x11358)))
 (let (($x1920 (exc_halt_t 1)))
 (let (($x10677 (or $x1920 (not (= ((_ extract 6 6) (bvadd (_ bv1 7) (concat (_ bv0 1) (sc_t 1)))) (_ bv0 1))))))
 (let (($x6580 (forall ((w (_ BitVec 256)) )(let ((?x11435 (storage_t x_0 x_1 x_CALLER 1 w)))
 (let ((?x7254 (storage_t x_0 x_1 x_CALLER 2 w)))
 (= ?x7254 ?x11435))))
 ))
 (let (($x185 (forall ((n (_ BitVec 6)) )(let ((?x11430 (stack_t x_0 x_1 x_CALLER 1 n)))
 (let ((?x549 (stack_t x_0 x_1 x_CALLER 2 n)))
 (or (bvsle (sc_t 1) n) (= ?x549 ?x11430)))))
 ))
 (let ((?x554 (used_gas_t x_0 x_1 x_CALLER 2)))
 (let (($x7821 (or $x56 (not (= ((_ extract 6 6) (bvadd (_ bv1 7) (concat (_ bv0 1) ?x63))) (_ bv0 1))) (not (bvsle (_ bv0 6) (bvadd (_ bv62 6) ?x63))))))
 (let (($x7457 (forall ((w (_ BitVec 256)) )(let ((?x11839 (storage_t x_0 x_1 x_CALLER 0 w)))
 (let ((?x11435 (storage_t x_0 x_1 x_CALLER 1 w)))
 (= ?x11435 ?x11839))))
 ))
 (let (($x9915 (forall ((n (_ BitVec 6)) )(let ((?x11827 (stack_t x_0 x_1 x_CALLER 0 n)))
 (let ((?x11430 (stack_t x_0 x_1 x_CALLER 1 n)))
 (or (bvsle (bvadd (_ bv62 6) (sc_t 0)) n) (= ?x11430 ?x11827)))))
 ))
 (let (($x9234 (= (stack_t x_0 x_1 x_CALLER 1 (bvadd (_ bv63 6) ?x63)) (stack_t x_0 x_1 x_CALLER 0 (bvadd (_ bv63 6) ?x63)))))
 (let ((?x61 (bvadd (_ bv62 6) ?x63)))
 (let ((?x896 (stack_t x_0 x_1 x_CALLER 0 ?x61)))
 (let (($x2691 (= $x3979 (or (exc_halt_s 4) (not (bvsle (_ bv0 6) (bvadd (_ bv62 6) (sc_s 4))))))))
 (let (($x6245 (forall ((w (_ BitVec 256)) )(let ((?x11490 (storage_s x_0 x_1 x_CALLER 4 w)))
 (let ((?x5408 (storage_s x_0 x_1 x_CALLER 5 w)))
 (= ?x5408 ?x11490))))
 ))
 (let (($x3634 (forall ((n (_ BitVec 6)) )(let ((?x11489 (stack_s x_0 x_1 x_CALLER 4 n)))
 (let ((?x1964 (stack_s x_0 x_1 x_CALLER 5 n)))
 (or (= ?x1964 ?x11489) (bvsle (bvadd (_ bv62 6) (sc_s 4)) n)))))
 ))
 (let (($x8141 (= (used_gas_s x_0 x_1 x_CALLER 5) (+ 3 (used_gas_s x_0 x_1 x_CALLER 4)))))
 (let (($x11388 (= (stack_s x_0 x_1 x_CALLER 5 (bvadd (_ bv62 6) ?x805)) (stack_s x_0 x_1 x_CALLER 4 (bvadd (_ bv63 6) (sc_s 4))))))
 (let (($x3856 (= (stack_s x_0 x_1 x_CALLER 5 (bvadd (_ bv63 6) ?x805)) (stack_s x_0 x_1 x_CALLER 4 (bvadd (_ bv62 6) (sc_s 4))))))
 (let (($x292 (exc_halt_s 3)))
 (let (($x11384 (or $x292 (not (= ((_ extract 6 6) (bvadd (_ bv1 7) (concat (_ bv0 1) (sc_s 3)))) (_ bv0 1))))))
 (let (($x64 (exc_halt_s 4)))
 (let (($x4117 (forall ((w (_ BitVec 256)) )(let ((?x11532 (storage_s x_0 x_1 x_CALLER 3 w)))
 (let ((?x11490 (storage_s x_0 x_1 x_CALLER 4 w)))
 (= ?x11490 ?x11532))))
 ))
 (let (($x8101 (forall ((n (_ BitVec 6)) )(let ((?x11528 (stack_s x_0 x_1 x_CALLER 3 n)))
 (let ((?x11489 (stack_s x_0 x_1 x_CALLER 4 n)))
 (or (bvsle (sc_s 3) n) (= ?x11489 ?x11528)))))
 ))
 (let ((?x11477 (used_gas_s x_0 x_1 x_CALLER 4)))
 (let (($x11462 (= $x292 (or (exc_halt_s 2) (not (bvsle (_ bv0 6) (bvadd (_ bv61 6) (sc_s 2))))))))
 (let (($x5279 (forall ((w (_ BitVec 256)) )(let ((?x11547 (storage_s x_0 x_1 x_CALLER 2 w)))
 (let ((?x11532 (storage_s x_0 x_1 x_CALLER 3 w)))
 (= ?x11532 ?x11547))))
 ))
 (let (($x5322 (forall ((n (_ BitVec 6)) )(let ((?x11555 (stack_s x_0 x_1 x_CALLER 2 n)))
 (let ((?x11528 (stack_s x_0 x_1 x_CALLER 3 n)))
 (or (= ?x11528 ?x11555) (bvsle (bvadd (_ bv61 6) (sc_s 2)) n)))))
 ))
 (let ((?x11505 (used_gas_s x_0 x_1 x_CALLER 3)))
 (let (($x11510 (= (stack_s x_0 x_1 x_CALLER 3 (bvadd (_ bv62 6) (sc_s 3))) (stack_s x_0 x_1 x_CALLER 2 (bvadd (_ bv62 6) (sc_s 2))))))
 (let ((?x11796 (stack_s x_0 x_1 x_CALLER 2 (bvadd (_ bv63 6) (sc_s 2)))))
 (let (($x11530 (= (stack_s x_0 x_1 x_CALLER 3 (bvadd (_ bv63 6) (sc_s 3))) (stack_s x_0 x_1 x_CALLER 2 (bvadd (_ bv61 6) (sc_s 2))))))
 (let (($x189 (exc_halt_s 1)))
 (let (($x11643 (or $x189 (not (= ((_ extract 6 6) (bvadd (_ bv1 7) (concat (_ bv0 1) (sc_s 1)))) (_ bv0 1))) (not (bvsle (_ bv0 6) (bvadd (_ bv61 6) (sc_s 1)))))))
 (let (($x247 (exc_halt_s 2)))
 (let (($x7044 (forall ((w (_ BitVec 256)) )(let ((?x7918 (storage_s x_0 x_1 x_CALLER 1 w)))
 (let ((?x11547 (storage_s x_0 x_1 x_CALLER 2 w)))
 (= ?x11547 ?x7918))))
 ))
 (let (($x11691 (forall ((n (_ BitVec 6)) )(let ((?x11675 (stack_s x_0 x_1 x_CALLER 1 n)))
 (let ((?x11555 (stack_s x_0 x_1 x_CALLER 2 n)))
 (or (= ?x11555 ?x11675) (bvsle (bvadd (_ bv61 6) (sc_s 1)) n)))))
 ))
 (let ((?x11565 (used_gas_s x_0 x_1 x_CALLER 2)))
 (let ((?x154 (sc_s 1)))
 (let ((?x11806 (bvadd (_ bv63 6) ?x154)))
 (let ((?x11642 (stack_s x_0 x_1 x_CALLER 1 ?x11806)))
 (let (($x7534 (= (stack_s x_0 x_1 x_CALLER 2 (bvadd (_ bv62 6) ?x154)) (stack_s x_0 x_1 x_CALLER 1 (bvadd (_ bv62 6) ?x154)))))
 (let ((?x11346 (bvadd (_ bv61 6) ?x154)))
 (let ((?x10356 (stack_s x_0 x_1 x_CALLER 1 ?x11346)))
 (let (($x11392 (or $x57 (not (bvsle (_ bv0 6) (bvadd (_ bv62 6) ?x72))) (not (= ((_ extract 6 6) (bvadd (_ bv1 7) (concat (_ bv0 1) ?x72))) (_ bv0 1))))))
 (let (($x2727 (forall ((w (_ BitVec 256)) )(let ((?x2945 (storage_s x_0 x_1 x_CALLER 0 w)))
 (let ((?x7918 (storage_s x_0 x_1 x_CALLER 1 w)))
 (= ?x7918 ?x2945))))
 ))
 (let (($x11350 (forall ((n (_ BitVec 6)) )(let ((?x9550 (stack_s x_0 x_1 x_CALLER 0 n)))
 (let ((?x11675 (stack_s x_0 x_1 x_CALLER 1 n)))
 (or (bvsle (bvadd (_ bv62 6) (sc_s 0)) n) (= ?x11675 ?x9550)))))
 ))
 (let (($x3090 (= (stack_s x_0 x_1 x_CALLER 1 (bvadd (_ bv63 6) ?x72)) (stack_s x_0 x_1 x_CALLER 0 (bvadd (_ bv63 6) ?x72)))))
 (let ((?x2413 (bvadd (_ bv62 6) ?x72)))
 (let ((?x11407 (stack_s x_0 x_1 x_CALLER 0 ?x2413)))
 (let (($x11769 (forall ((w (_ BitVec 256)) )(let ((?x2945 (storage_s x_0 x_1 x_CALLER 0 w)))
 (= ?x2945 (_ bv0 256))))
 ))
 (let (($x11771 (= ?x9574 0)))
 (let (($x11754 (= (stack_s x_0 x_1 x_CALLER 0 (_ bv1 6)) x_1)))
 (let (($x11756 (= (stack_s x_0 x_1 x_CALLER 0 (_ bv0 6)) x_0)))
 (let (($x162 (= ?x72 (_ bv2 6))))
 (and $x162 $x11756 $x11754 (not $x57) $x11771 $x11769 (= ?x11642 ?x11407) (= (stack_s x_0 x_1 x_CALLER 1 ?x2413) ?x11407) $x3090 (= (used_gas_s x_0 x_1 x_CALLER 1) (+ 3 ?x9574)) (= ?x154 (bvadd (_ bv1 6) ?x72)) $x11350 $x2727 (= $x189 $x11392) (= ?x11796 ?x10356) (= (stack_s x_0 x_1 x_CALLER 2 ?x11346) ?x10356) $x7534 (= (stack_s x_0 x_1 x_CALLER 2 ?x11806) ?x11642) (= ?x11565 (+ 3 (used_gas_s x_0 x_1 x_CALLER 1))) (= (sc_s 2) (bvadd (_ bv1 6) ?x154)) $x11691 $x7044 (= $x247 $x11643) $x11530 (= (stack_s x_0 x_1 x_CALLER 3 (bvadd (_ bv61 6) (sc_s 3))) ?x11796) $x11510 (= ?x11505 (+ 3 ?x11565)) (= (sc_s 3) (sc_s 2)) $x5322 $x5279 $x11462 (= (stack_s x_0 x_1 x_CALLER 4 (sc_s 3)) x_CALLER) (= ?x11477 (+ 2 ?x11505)) (= (sc_s 4) (bvadd (_ bv1 6) (sc_s 3))) $x8101 $x4117 (= $x64 $x11384) $x3856 $x11388 $x8141 (= ?x805 (sc_s 4)) $x3634 $x6245 $x2691 (= (stack_t x_0 x_1 x_CALLER 1 (bvadd (_ bv63 6) (sc_t 1))) ?x896) (= (stack_t x_0 x_1 x_CALLER 1 ?x61) ?x896) $x9234 (= (used_gas_t x_0 x_1 x_CALLER 1) (+ 3 ?x8606)) (= (sc_t 1) (bvadd (_ bv1 6) ?x63)) $x9915 $x7457 (= $x1920 $x7821) (= (stack_t x_0 x_1 x_CALLER 2 (sc_t 1)) x_CALLER) (= ?x554 (+ 2 (used_gas_t x_0 x_1 x_CALLER 1))) (= ?x4056 (bvadd (_ bv1 6) (sc_t 1))) $x185 $x6580 (= $x903 $x10677) (= ?x11341 ?x6781) (= (stack_t x_0 x_1 x_CALLER 3 ?x11358) ?x6781) $x4408 (= ?x10638 (+ 3 ?x554)) (= (sc_t 3) (bvadd (_ bv1 6) ?x4056)) $x7345 $x11485 (= $x4755 $x7503) $x7354 (= (stack_t x_0 x_1 x_CALLER 4 (bvadd (_ bv60 6) ?x3757)) ?x11341) $x8283 $x6453 $x2682 (= ?x3757 (sc_t 3)) $x632 $x8551 $x7444 $x73 $x11527 $x58 $x8433 $x5644 (not (and $x9143 $x9057 $x7567 $x10324))))))))))))))))))))))))))))))))))))))))))))))))))))))))))))))))))))))))))))))))))))))))))))))
 )
(check-sat)
(get-proof)
